; benchmark generated from python API
(set-info :status unknown)
(declare-fun S_3 () Real)
(declare-fun L_1 () Real)
(declare-fun A_3 () Real)
(declare-fun S_2 () Real)
(declare-fun A_2 () Real)
(declare-fun S_1 () Real)
(declare-fun A_1 () Real)
(declare-fun L_0 () Real)
(declare-fun S_0 () Real)
(declare-fun A_0 () Real)
(declare-fun S_4 () Real)
(declare-fun A_4 () Real)
(declare-fun Q_4 () Real)
(assert
 (let (($x34 (>= L_0 0.0)))
 (let ((?x952 (* (- 1.0) S_0)))
 (let ((?x1182 (* 3.0 S_1)))
 (let ((?x1742 (* (- 2.0) S_4)))
 (let ((?x773 (* (- 2.0) A_2)))
 (let ((?x1168 (* 2.0 A_3)))
 (let (($x51139 (<= (+ (* 4.0 A_2) (* (- 4.0) L_1) (* (- 3.0) S_4) ?x952) 0.0)))
 (let (($x4103 (<= (+ (* (- 1.0) S_4) (* 2.0 S_1) ?x952) 0.0)))
 (let (($x887 (<= (+ A_3 (* (- 1.0) L_1) (* (- 1.0) S_4)) 0.0)))
 (let ((?x530 (* 2.0 S_0)))
 (let ((?x1729 (* (- 2.0) S_2)))
 (let ((?x372 (* (- 1.0) A_2)))
 (let ((?x360 (* (- 1.0) Q_4)))
 (let ((?x405 (* (- 1.0) S_2)))
 (let ((?x368 (* (- 1.0) A_3)))
 (let ((?x5076 (+ ?x360 A_4 ?x368 ?x405 S_0)))
 (let (($x153187 (<= ?x5076 (- 5.0))))
 (let ((?x1436 (* (/ 3.0 4.0) S_0)))
 (let ((?x15942 (* (/ 1.0 4.0) A_4)))
 (let ((?x19698 (* (- (/ 1.0 4.0)) Q_4)))
 (let ((?x5427 (* (- (/ 1.0 4.0)) L_1)))
 (let (($x19690 (<= (+ ?x5427 ?x19698 ?x15942 ?x405 ?x1436) 0.0)))
 (let (($x1308 (>= Q_4 5.0)))
 (let (($x899 (<= (+ A_1 (* (- 1.0) L_1) ?x405) 0.0)))
 (let ((?x1430 (* (- (/ 1.0 2.0)) S_4)))
 (let ((?x2289 (* (- (/ 1.0 2.0)) L_1)))
 (let ((?x2191 (* (/ 1.0 2.0) A_1)))
 (let (($x150616 (<= (+ ?x360 A_4 ?x372 (* (- (/ 2.0 3.0)) S_4) (* (/ 2.0 3.0) S_0)) (- 5.0))))
 (let (($x148964 (<= (+ ?x360 A_4 ?x372 A_1 (* (- 1.0) L_1) (* (- 1.0) S_4)) (- 5.0))))
 (let (($x148248 (<= 0.0 (+ Q_4 (* (- 1.0) A_4) ?x372 (* 2.0 L_1) (* 2.0 S_4)))))
 (let ((?x383 (* (- 1.0) S_4)))
 (let ((?x468 (* (- 1.0) L_1)))
 (let ((?x9236 (+ ?x360 A_4 ?x368 A_2 ?x468 ?x383)))
 (let (($x148226 (<= ?x9236 (- 5.0))))
 (let ((?x2324 (* (/ 3.0 2.0) L_1)))
 (let ((?x2277 (* (- (/ 1.0 2.0)) A_1)))
 (let ((?x364 (* (- 1.0) A_4)))
 (let ((?x1400 (* (/ 1.0 4.0) S_0)))
 (let ((?x17695 (* (/ 3.0 4.0) A_4)))
 (let ((?x16991 (* (- (/ 3.0 4.0)) Q_4)))
 (let ((?x16742 (* (- (/ 3.0 4.0)) L_1)))
 (let (($x19665 (<= (+ ?x16742 ?x16991 ?x17695 ?x383 ?x1400) 0.0)))
 (let (($x177700 (or $x887 $x1308 $x19665 (<= 0.0 (+ Q_4 ?x364 ?x2277 ?x2324 (* (/ 3.0 2.0) S_4))) $x148226 $x148248 $x148964 $x150616 (<= (+ ?x360 A_4 ?x368 (* (- (/ 1.0 3.0)) S_4) (* (/ 1.0 3.0) S_0)) (- 5.0)) (<= (+ ?x360 A_4 ?x368 ?x2191 ?x2289 ?x1430) (- 5.0)))))
 (let (($x19837 (<= (+ ?x1742 (* 3.0 S_2) (* (- 1.0) S_1)) 0.0)))
 (let (($x12555 (<= (+ Q_4 A_3 ?x372 ?x383 S_2) 0.0)))
 (let (($x19102 (<= (+ (* (- 1.0) A_0) ?x1742 (* 3.0 S_2) L_0) 0.0)))
 (let (($x160451 (<= 0.0 (+ (* 2.0 Q_4) ?x364 ?x1168 ?x372))))
 (let (($x146820 (<= 0.0 (+ ?x372 ?x2191 (* (/ 1.0 2.0) L_1) (* (/ 1.0 2.0) S_4)))))
 (let (($x12817 (<= (+ ?x360 ?x1168 ?x773 (* 3.0 A_1) ?x1742 ?x952 (* (- 3.0) L_1)) 0.0)))
 (let ((?x4294 (* (/ 1.0 3.0) S_1)))
 (let ((?x3468 (* (/ 2.0 3.0) A_4)))
 (let ((?x3467 (* (- (/ 2.0 3.0)) Q_4)))
 (let ((?x3471 (* (- (/ 2.0 3.0)) L_1)))
 (let (($x4418 (<= (+ ?x3471 ?x3467 ?x3468 ?x383 ?x4294) 0.0)))
 (let (($x2423 (<= (+ (* (- 2.0) Q_4) (* 2.0 A_1) ?x383 ?x952 (* (- 2.0) L_1)) 0.0)))
 (let (($x1644 (<= (+ ?x360 A_4 ?x372 A_1 ?x383 ?x468) 0.0)))
 (let (($x147312 (<= 0.0 (+ ?x360 ?x368 A_2 (* (/ 1.0 4.0) S_4) (* (- (/ 1.0 4.0)) S_0)))))
 (let ((?x1267 (* (/ 1.0 2.0) L_1)))
 (let ((?x1425 (* (/ 1.0 2.0) S_4)))
 (let ((?x2427 (* (/ 1.0 2.0) Q_4)))
 (let (($x146939 (<= 0.0 (+ ?x2427 ?x364 A_3 ?x2277 ?x1425 ?x1267))))
 (let (($x146722 (<= 0.0 (+ Q_4 ?x364 ?x1168 ?x372))))
 (let (($x138794 (not $x146722)))
 (let (($x46823 (<= (+ (* 3.0 A_2) (* (- 1.0) A_0) (* (- 3.0) L_1) ?x1742 L_0) 0.0)))
 (let ((?x1303 (* (- 3.0) L_1)))
 (let ((?x904 (* (- 1.0) A_0)))
 (let ((?x1300 (* 3.0 A_1)))
 (let ((?x1301 (* (- 3.0) A_3)))
 (let ((?x1302 (* 3.0 A_4)))
 (let ((?x1304 (* (- 3.0) Q_4)))
 (let (($x8748 (<= (+ ?x1304 ?x1302 ?x1301 ?x1300 ?x904 ?x1742 L_0 ?x1303) 0.0)))
 (let ((?x2330 (* (- (/ 3.0 2.0)) L_1)))
 (let ((?x2328 (* (/ 3.0 2.0) A_1)))
 (let ((?x1801 (* (- (/ 3.0 2.0)) Q_4)))
 (let (($x1950 (<= (+ ?x1801 ?x2328 ?x904 ?x1430 L_0 ?x2330) 0.0)))
 (let ((?x1163 (* (- 2.0) L_1)))
 (let ((?x394 (* (- 1.0) S_3)))
 (let ((?x1162 (* 2.0 A_1)))
 (let ((?x1159 (* (- 2.0) Q_4)))
 (let (($x6802 (<= (+ ?x1159 ?x1162 ?x904 ?x394 L_0 ?x1163) 0.0)))
 (let (($x1174 (<= (+ ?x360 A_4 ?x368 A_1 ?x394 ?x468) 0.0)))
 (let (($x893 (<= (+ A_2 ?x468 ?x394) 0.0)))
 (let (($x8174 (<= (+ (* (- 3.0) S_4) (* 4.0 S_2) ?x952) 0.0)))
 (let (($x12084 (<= (+ ?x360 A_3 ?x372 ?x1162 ?x904 ?x383 L_0 ?x1163) 0.0)))
 (let (($x1928 (<= (+ Q_4 ?x364 A_3 A_2 (* (- 1.0) A_1)) 0.0)))
 (let ((?x3407 (* (/ 2.0 3.0) S_0)))
 (let ((?x5729 (* (/ 1.0 3.0) S_4)))
 (let ((?x3457 (* (/ 1.0 3.0) A_2)))
 (let ((?x19286 (* (- (/ 1.0 3.0)) A_3)))
 (let ((?x3447 (* (- (/ 1.0 3.0)) Q_4)))
 (let (($x5075 (<= ?x5076 0.0)))
 (let (($x148387 (<= (+ ?x360 A_4 ?x368 A_1 ?x383 ?x468) (- 5.0))))
 (let (($x145849 (<= (+ (* (- (/ 1.0 2.0)) Q_4) ?x2191 ?x1430 ?x2289) (- 5.0))))
 (let (($x148490 (<= 0.0 ?x9236)))
 (let (($x147616 (<= (+ A_2 ?x468 ?x383) (- 5.0))))
 (let ((?x6295 (* 6.0 S_3)))
 (let ((?x6294 (* 6.0 L_1)))
 (let ((?x2849 (* (- 4.0) A_1)))
 (let ((?x1167 (* (- 2.0) A_4)))
 (let ((?x1166 (* 2.0 Q_4)))
 (let (($x18160 (<= (+ ?x2289 (* (- (/ 1.0 2.0)) Q_4) (* (/ 1.0 2.0) A_4) ?x394 (* (/ 1.0 2.0) S_0)) 0.0)))
 (let (($x180073 (or $x893 $x1308 $x18160 (<= (+ ?x360 A_4 ?x372 ?x1162 ?x1163 (* (- 2.0) S_3)) (- 5.0)) (<= 0.0 (+ ?x1166 ?x1167 ?x2849 ?x6294 ?x6295)) (<= (+ ?x360 A_4 ?x368 A_1 ?x468 ?x394) (- 5.0)) (<= (+ ?x360 A_4 ?x368 (* (- (/ 1.0 2.0)) S_3) (* (/ 1.0 2.0) S_0)) (- 5.0)) (<= (+ ?x360 A_4 ?x372 ?x394 S_0) (- 5.0)))))
 (let (($x6829 (<= (+ ?x1159 ?x1162 ?x394 (* (- 1.0) S_1) ?x1163) 0.0)))
 (let ((?x3403 (* (- (/ 4.0 3.0)) L_1)))
 (let ((?x1635 (* (- 2.0) S_3)))
 (let ((?x3439 (* (/ 4.0 3.0) A_1)))
 (let ((?x3404 (* (- (/ 4.0 3.0)) A_2)))
 (let ((?x3445 (* (/ 4.0 3.0) A_4)))
 (let ((?x3406 (* (- (/ 4.0 3.0)) Q_4)))
 (let (($x3427 (<= (+ ?x3406 ?x3445 ?x3404 ?x3439 ?x1635 ?x3407 ?x3403) 0.0)))
 (let (($x51251 (<= (+ (* 3.0 A_2) ?x1303 ?x1742 (* (- 1.0) S_1)) 0.0)))
 (let (($x411313 (or $x1308 $x19665 $x147616 (not (<= 0.0 (+ ?x1166 ?x1167 ?x1168 S_1 ?x952))) $x148387 $x148490)))
 (let (($x28406 (<= (+ Q_4 ?x372 (* (- 1.0) A_1) (* 2.0 L_1) S_3 S_0) 0.0)))
 (let (($x908 (= (+ L_1 (* (- 1.0) L_0)) 0.0)))
 (let (($x12853 (<= (+ ?x360 A_3 ?x372 ?x1162 ?x383 (* (- 1.0) S_1) ?x1163) 0.0)))
 (let (($x9937 (<= (+ ?x360 A_2 A_1 ?x1163 ?x383 (* (- 1.0) S_1)) 0.0)))
 (let ((?x416 (* (- 1.0) S_1)))
 (let ((?x1513 (* 2.0 A_2)))
 (let (($x9229 (<= (+ ?x360 A_4 ?x368 ?x1513 A_1 ?x1303 ?x1742 ?x416) 0.0)))
 (let (($x4616 (<= (+ ?x2289 (* (- (/ 1.0 2.0)) Q_4) (* (/ 1.0 2.0) A_4) ?x383 (* (/ 1.0 2.0) S_2)) 0.0)))
 (let (($x2428 (<= (+ ?x1801 ?x2328 ?x1430 ?x416 ?x2330) 0.0)))
 (let (($x1900 (not $x1928)))
 (let (($x1964 (<= (+ ?x1513 ?x1163 ?x1742 S_1 ?x952) 0.0)))
 (let ((?x2981 (* 4.0 L_1)))
 (let ((?x1210 (* 2.0 S_2)))
 (let ((?x1636 (* 2.0 S_4)))
 (let ((?x24920 (* 4.0 A_2)))
 (let ((?x10906 (* (- 4.0) A_4)))
 (let ((?x2494 (* 4.0 Q_4)))
 (let (($x1567 (<= (+ ?x1166 ?x1167 A_3 A_2 (* (- 1.0) A_1) S_4 L_1) 0.0)))
 (let (($x988 (<= Q_4 0.0)))
 (let (($x411275 (or $x908 $x988 $x1567 (<= (+ ?x2494 ?x10906 ?x24920 ?x2849 ?x1636 ?x1210 ?x2981) 0.0))))
 (let (($x25283 (<= (+ ?x1166 ?x364 A_3 (* (- 1.0) A_1) L_1 S_2) 0.0)))
 (let ((?x4633 (* (/ 3.0 2.0) S_2)))
 (let ((?x376 (* (- 1.0) A_1)))
 (let ((?x4607 (* (- (/ 1.0 2.0)) A_4)))
 (let ((?x2381 (* (/ 3.0 2.0) Q_4)))
 (let (($x406191 (or $x887 $x1964 $x4103 (<= (+ ?x1168 ?x773 ?x1162 ?x1742 S_1 ?x952 ?x1163) 0.0))))
 (let (($x9313 (<= (+ ?x360 ?x1513 A_1 ?x1303 ?x1742 ?x952) 0.0)))
 (let ((?x4176 (* (- 3.0) S_4)))
 (let ((?x3048 (* (- 4.0) L_1)))
 (let ((?x981 (* 3.0 A_2)))
 (let (($x9218 (<= (+ ?x360 A_4 ?x368 ?x981 A_1 ?x3048 ?x4176 ?x952) 0.0)))
 (let ((?x3046 (* 4.0 A_1)))
 (let ((?x8754 (* (- 4.0) A_3)))
 (let ((?x8757 (* 4.0 A_4)))
 (let ((?x3049 (* (- 4.0) Q_4)))
 (let (($x8773 (<= (+ ?x3049 ?x8757 ?x8754 ?x3046 ?x4176 ?x952 ?x3048) 0.0)))
 (let (($x413324 (or $x2423 $x4616 $x8773 $x9218 $x9313 (<= (- 5.0) (+ (* (- 2.0) A_3) ?x1513 A_1 ?x468 ?x952)))))
 (let (($x148175 (<= (+ ?x1159 (* 2.0 A_4) (* (- 2.0) A_3) A_1 ?x383 ?x468) (- 5.0))))
 (let (($x6827 (<= (+ ?x1304 ?x1300 ?x1635 ?x952 ?x1303) 0.0)))
 (let (($x8775 (<= (+ ?x1304 ?x1302 ?x1301 ?x1300 ?x1742 ?x416 ?x1303) 0.0)))
 (let ((?x1426 (* (/ 1.0 2.0) S_0)))
 (let ((?x2395 (* (- (/ 3.0 2.0)) A_1)))
 (let ((?x4628 (* (- (/ 3.0 2.0)) A_4)))
 (let (($x150149 (or $x908 $x988 (<= (+ ?x2381 ?x4628 (* (/ 3.0 2.0) A_3) ?x2395 S_3 ?x1426 ?x2324) 0.0))))
 (let (($x153325 (not (<= 0.0 (+ ?x364 A_3 A_1 ?x416 ?x468)))))
 (let (($x38313 (not (<= (+ ?x1513 ?x376 ?x468 ?x383) 0.0))))
 (let (($x148491 (not $x148490)))
 (let (($x9280 (<= (+ ?x360 A_2 A_1 ?x904 ?x1163 ?x383 L_0) 0.0)))
 (let (($x22249 (<= (+ ?x1166 ?x368 A_2 (* (- 3.0) A_1) S_4 ?x530 (* 3.0 L_1)) 0.0)))
 (let (($x8764 (<= (+ ?x1159 (* 2.0 A_4) (* (- 2.0) A_3) ?x1162 ?x383 ?x405 ?x1163) 0.0)))
 (let (($x1811 (<= (+ ?x360 A_1 ?x405 ?x468) 0.0)))
 (let (($x9233 (<= (+ ?x360 A_4 ?x368 ?x1513 A_1 ?x904 ?x1303 ?x1742 L_0) 0.0)))
 (let (($x148200 (not (<= 0.0 (+ Q_4 ?x364 A_3 ?x372 S_3 L_1)))))
 (let ((?x3477 (* (/ 2.0 3.0) L_1)))
 (let ((?x3476 (* (- (/ 2.0 3.0)) A_1)))
 (let ((?x3484 (* (/ 2.0 3.0) A_2)))
 (let ((?x3475 (* (- (/ 2.0 3.0)) A_4)))
 (let ((?x3474 (* (/ 2.0 3.0) Q_4)))
 (let (($x147721 (<= (+ ?x360 A_4 ?x372 ?x383 S_1) (- 5.0))))
 (let (($x179117 (or $x887 $x1308 $x4418 $x147721 $x148226 $x148248 (<= (+ ?x360 A_4 ?x368 ?x1430 (* (/ 1.0 2.0) S_1)) (- 5.0)))))
 (let (($x151019 (<= (+ ?x1166 ?x1167 ?x1513 (* (- 2.0) A_1) ?x1210 (* 2.0 L_1)) (- 10.0))))
 (let (($x24943 (<= (+ ?x2494 ?x10906 ?x24920 ?x2849 (* 6.0 S_2) (* (- 2.0) S_1) ?x2981) 0.0)))
 (let (($x3799 (<= (+ ?x1166 ?x1167 ?x1168 S_2 ?x416) 0.0)))
 (let (($x184126 (or $x887 $x1308 $x148964 (<= (+ ?x1159 (* 2.0 A_4) ?x368 ?x372 ?x383 S_0) (- 5.0)) (not $x150616))))
 (let ((?x20309 (* (- (/ 1.0 2.0)) A_3)))
 (let ((?x4618 (* (/ 1.0 2.0) A_4)))
 (let ((?x2010 (* (- (/ 1.0 2.0)) Q_4)))
 (let (($x153080 (<= (+ ?x2010 ?x4618 ?x20309 ?x2277 ?x1426 ?x1267) (- 5.0))))
 (let (($x150641 (<= (+ (* (/ 3.0 4.0) L_1) ?x19698 ?x15942 ?x376 ?x1436) (- 5.0))))
 (let (($x147498 (<= (+ A_3 ?x372 ?x376 L_1 S_0) (- 5.0))))
 (let (($x4112 (<= (+ (* (- 2.0) A_0) ?x383 ?x1182 (* 2.0 L_0)) 0.0)))
 (let (($x179500 (or $x887 $x4112 (<= (+ Q_4 A_3 ?x372 ?x904 ?x383 (* 2.0 S_1) L_0) 0.0) $x46823)))
 (let (($x34443 (<= (+ ?x1166 ?x372 (* (- 2.0) A_1) (* 3.0 L_1) S_4 ?x530) 0.0)))
 (let (($x147957 (<= (+ ?x360 A_1 ?x394 ?x468) (- 5.0))))
 (let ((?x2559 (+ ?x1166 ?x1167 ?x1168 S_1 ?x952)))
 (let (($x3173 (<= ?x2559 0.0)))
 (let (($x7391 (<= (+ ?x360 A_4 ?x368 A_2 A_1 ?x1163 ?x383 ?x405) 0.0)))
 (let (($x398080 (or $x908 (<= (+ ?x4607 (* (/ 1.0 2.0) A_3) ?x2395 ?x1425 S_0 ?x2324) (- 5.0)))))
 (let ((?x1663 (* 2.0 L_0)))
 (let ((?x15063 (* 6.0 S_2)))
 (let ((?x1662 (* (- 2.0) A_0)))
 (let (($x2828 (<= (+ ?x1166 ?x1167 ?x1168 ?x904 S_2 L_0) 0.0)))
 (let (($x401546 (or $x908 $x988 $x2828 (<= (+ ?x2494 ?x10906 ?x24920 ?x2849 ?x1662 ?x15063 ?x1663 ?x2981) 0.0))))
 (let (($x151766 (<= 0.0 (+ ?x360 A_4 ?x368 (* (- (/ 1.0 4.0)) S_4) ?x1400))))
 (let (($x3882 (<= (+ (* (- (/ 1.0 3.0)) L_1) ?x3447 (* (/ 1.0 3.0) A_4) ?x394 (* (/ 2.0 3.0) S_1)) 0.0)))
 (let (($x1645 (<= (+ ?x360 A_4 ?x372 A_1 ?x1635 S_1 ?x468) 0.0)))
 (let (($x6839 (<= (+ ?x1159 ?x1162 S_4 (* (- 3.0) S_3) ?x1163) 0.0)))
 (let (($x200631 (or $x893 $x908 (<= (+ ?x364 A_3 ?x376 S_4 ?x1635 (* 2.0 S_1) L_1) 0.0))))
 (let (($x151072 (<= (+ Q_4 ?x364 A_3 ?x376 L_1 S_2) (- 5.0))))
 (let (($x197246 (or $x1928 $x2423 $x4418 $x8773 $x138794 (not (<= 0.0 (+ ?x773 ?x1162 S_1 ?x952))))))
 (let ((?x1125 (* (- 3.0) A_1)))
 (let ((?x1116 (* 3.0 A_3)))
 (let (($x10333 (<= (+ ?x6294 (* 6.0 Q_4) (* (- 6.0) A_4) ?x1116 ?x1125 ?x6295) 0.0)))
 (let (($x4540 (<= (+ (* 3.0 Q_4) (* (- 3.0) A_4) ?x1116 S_2 ?x952) 0.0)))
 (let ((?x1156 (* 3.0 L_1)))
 (let ((?x14518 (* 4.0 S_2)))
 (let ((?x1153 (* (- 3.0) A_4)))
 (let ((?x1028 (* 3.0 Q_4)))
 (let (($x195083 (or $x908 $x988 $x4540 (<= (+ ?x1028 ?x1153 ?x981 ?x1125 ?x14518 ?x952 ?x1156) 0.0))))
 (let (($x24919 (<= (+ ?x1166 ?x364 A_2 (* (- 2.0) A_1) ?x1210 (* 2.0 L_1)) 0.0)))
 (let (($x22260 (<= (+ Q_4 ?x368 A_2 (* (- 2.0) A_1) S_3 S_0 (* 2.0 L_1)) 0.0)))
 (let (($x1172 (<= (+ ?x1166 ?x1167 ?x1168 (* (- 2.0) A_1) S_3 S_1 (* 2.0 L_1)) 0.0)))
 (let ((?x1155 (* 2.0 S_1)))
 (let ((?x1169 (* (- 2.0) A_1)))
 (let (($x188502 (or $x908 $x988 (<= (+ ?x1166 ?x1167 ?x1168 ?x372 ?x1169 ?x1156 S_4 ?x1155) 0.0))))
 (let (($x38189 (<= (+ ?x2010 ?x20309 (* (/ 1.0 2.0) A_2) (* (/ 1.0 2.0) S_3) ?x405 ?x1426) 0.0)))
 (let (($x7938 (<= (+ ?x1159 ?x368 A_2 A_1 S_4 ?x1635 ?x468) 0.0)))
 (let ((?x3518 (+ ?x360 A_4 ?x368 ?x394 S_1)))
 (let (($x3709 (<= ?x3518 0.0)))
 (let (($x148209 (not (<= (- 5.0) (+ ?x372 A_1)))))
 (let (($x147894 (not (<= (- 5.0) (+ ?x368 A_2)))))
 (let (($x1875 (<= (+ Q_4 ?x364 A_3 ?x372 ?x376 (* 2.0 L_1) S_3 S_1) 0.0)))
 (let (($x1956 (<= (+ A_2 ?x904 ?x468 ?x383 S_1 L_0) 0.0)))
 (let ((?x18491 (+ A_3 ?x372 ?x383 S_2)))
 (let (($x149749 (<= ?x18491 (- 5.0))))
 (let (($x403188 (or $x887 $x1308 $x4616 $x149749 (<= (+ ?x360 A_4 ?x368 ?x383 S_2) (- 5.0)) (<= (+ ?x360 A_4 ?x372 ?x1742 ?x1210) (- 5.0)))))
 (let (($x410390 (or $x887 $x1956 $x4112 (<= (+ A_3 ?x372 A_1 ?x904 ?x383 S_1 L_0 ?x468) 0.0))))
 (let (($x148742 (<= 0.0 (+ Q_4 ?x364 A_3 (* (/ 1.0 2.0) S_3) (* (- (/ 1.0 2.0)) S_0)))))
 (let (($x148030 (<= (+ ?x3447 (* (/ 1.0 3.0) A_4) (* (- (/ 1.0 3.0)) A_2) ?x3476 ?x3407 ?x3477) (- 5.0))))
 (let (($x34456 (<= (+ ?x2010 ?x4618 (* (- (/ 1.0 2.0)) A_2) ?x405 S_0) 0.0)))
 (let (($x187607 (or $x887 $x8174 (<= (+ ?x1116 (* (- 3.0) A_2) ?x1300 ?x4176 S_2 ?x952 ?x1303) 0.0))))
 (let (($x187732 (or $x908 $x1308 (<= (+ ?x2010 ?x4618 (* (- (/ 1.0 2.0)) A_2) ?x376 L_1 S_0) (- 5.0)) $x153080)))
 (let (($x151139 (<= (+ Q_4 ?x364 A_2) (- 10.0))))
 (let (($x147743 (<= (+ (* (/ 1.0 3.0) L_1) (* (/ 1.0 3.0) Q_4) (* (- (/ 1.0 3.0)) A_4) ?x4294) (- 5.0))))
 (let (($x146902 (<= (+ Q_4 ?x364 A_3) (- 5.0))))
 (let (($x138743 (not (<= 0.0 (+ ?x1159 (* 2.0 A_4) (* (- 2.0) A_3) ?x383 S_1)))))
 (let (($x185257 (or $x908 $x988 $x151072 (<= (+ Q_4 ?x364 A_2 ?x1169 ?x1210 (* 2.0 L_1)) (- 5.0)))))
 (let (($x1176 (<= (+ Q_4 ?x364 A_3 ?x376 S_2 L_1) 0.0)))
 (let (($x413202 (or $x988 $x1176 (<= (+ Q_4 ?x364 ?x1169 ?x1156 (* 3.0 S_2)) 0.0))))
 (let (($x3722 (<= (+ Q_4 ?x364 A_3 ?x904 S_1 L_0) 0.0)))
 (let (($x190439 (or $x908 $x988 (<= (+ Q_4 ?x364 A_2 ?x376 ?x1662 ?x1182 ?x1663 L_1) 0.0) $x3722)))
 (let (($x199106 (or $x908 (<= (+ ?x4607 (* (/ 1.0 2.0) A_3) ?x2277 ?x1425 ?x405 S_0 ?x1267) 0.0))))
 (let ((?x3412 (+ (* (/ 8.0 3.0) Q_4) (* (- (/ 8.0 3.0)) A_4) (* (/ 8.0 3.0) A_2) (* (- (/ 8.0 3.0)) A_1) ?x1636 ?x3407 (* (/ 8.0 3.0) L_1))))
 (let (($x150751 (<= (+ (* (/ 1.0 4.0) L_1) (* (/ 1.0 4.0) Q_4) (* (- (/ 1.0 4.0)) A_4) ?x1400) (- 5.0))))
 (let (($x149197 (<= (+ Q_4 ?x364 A_1) (- 15.0))))
 (let (($x416327 (or $x893 $x1308 $x3882 (<= ?x3518 (- 5.0)) (<= (+ ?x360 A_4 ?x372 ?x1635 ?x1155) (- 5.0)))))
 (let (($x20750 (<= (+ ?x2010 ?x4618 ?x20309 ?x2191 ?x405 ?x1426 ?x2289) 0.0)))
 (let ((?x3452 (* (- (/ 1.0 3.0)) L_1)))
 (let ((?x3451 (* (/ 1.0 3.0) A_1)))
 (let ((?x3450 (* (- (/ 1.0 3.0)) A_2)))
 (let ((?x3449 (* (/ 1.0 3.0) A_4)))
 (let (($x200643 (or $x1811 (<= (+ ?x3447 ?x3449 ?x3450 ?x3451 ?x405 ?x3407 ?x3452) 0.0) $x19690 $x20750)))
 (let (($x147708 (<= (+ (* (- (/ 1.0 3.0)) S_4) (* (/ 1.0 3.0) S_0)) (- 5.0))))
 (let (($x145690 (<= (+ ?x2191 ?x2289 ?x1430) (- 5.0))))
 (let ((?x3464 (* (/ 1.0 3.0) S_0)))
 (let ((?x5730 (* (/ 2.0 3.0) S_4)))
 (let ((?x18213 (* (- (/ 2.0 3.0)) A_3)))
 (let (($x400454 (or $x893 $x1174 (<= (+ ?x360 ?x368 A_2 A_1 ?x468 S_4 ?x1635) 0.0) (<= (+ ?x3467 ?x18213 ?x3484 ?x5730 ?x394 ?x3464) 0.0) $x148742)))
 (let (($x39445 (<= (+ Q_4 ?x364 A_3 ?x372 ?x376 (* 2.0 L_1) S_4 S_0) 0.0)))
 (let (($x39442 (<= (+ ?x2427 ?x4607 (* (/ 1.0 2.0) A_3) ?x372 ?x2277 ?x2324 S_3 ?x1426) 0.0)))
 (let (($x409907 (or $x893 (<= (+ ?x368 L_1 S_4 (* (- (/ 1.0 2.0)) S_3) ?x1426) 0.0) (<= (+ ?x368 A_1 S_4 ?x394) 0.0))))
 (let (($x189385 (or $x893 (<= (+ ?x1425 ?x394 ?x1426) 0.0) (<= (+ ?x3046 ?x3048 ?x1636 (* (- 6.0) S_3)) 0.0))))
 (let (($x9518 (<= (+ Q_4 ?x364 A_2 S_1 ?x952) 0.0)))
 (let (($x414766 (or $x988 $x3173 $x9518 (not (<= 0.0 (+ ?x3477 ?x3447 ?x3449 ?x372 (* (/ 2.0 3.0) S_1)))))))
 (let (($x2424 (<= (+ ?x2427 ?x2277 ?x1430 S_2 ?x1267) 0.0)))
 (let (($x191285 (or $x887 $x19102 (<= (+ ?x1168 ?x773 ?x1162 ?x904 ?x1742 S_2 L_0 ?x1163) 0.0))))
 (let (($x178532 (or $x908 $x988 (<= (+ Q_4 ?x364 A_2 ?x376 ?x1155 ?x952 L_1) 0.0) $x3173)))
 (let (($x195114 (or $x908 $x988 (<= (+ ?x1166 ?x1167 ?x1168 ?x1169 S_4 S_0 (* 2.0 L_1)) 0.0))))
 (let (($x149785 (or $x908 (<= (+ ?x364 A_2 ?x1169 S_4 S_0 (* 2.0 L_1)) (- 5.0)))))
 (let (($x405548 (or $x988 (<= (+ ?x1156 ?x1028 ?x1153 ?x904 (* 4.0 S_3) L_0) 0.0))))
 (let (($x188010 (or $x908 (<= (+ ?x368 A_2 ?x1169 S_3 S_0 (* 2.0 L_1)) (- 5.0)))))
 (let (($x183499 (or $x908 (<= (+ ?x1167 ?x1513 ?x1169 ?x1636 ?x394 S_0 (* 2.0 L_1)) 0.0))))
 (let (($x178397 (or $x908 (<= (+ Q_4 ?x368 ?x376 (* 2.0 L_1) S_4 S_0) 0.0))))
 (let (($x186564 (or $x908 $x988 $x1567 (<= (+ ?x1028 ?x1153 ?x981 ?x1125 ?x1636 S_1 ?x1156) 0.0))))
 (let ((?x3456 (* (- (/ 1.0 3.0)) A_4)))
 (let ((?x3455 (* (/ 1.0 3.0) Q_4)))
 (let ((?x3459 (* (/ 1.0 3.0) L_1)))
 (let (($x196774 (or $x988 (<= (+ ?x3459 ?x3455 ?x3456 ?x904 (* (/ 4.0 3.0) S_1) L_0) 0.0) $x3722 (<= (+ Q_4 ?x364 A_2 ?x1662 ?x1155 ?x1663) 0.0))))
 (let (($x148211 (<= 0.0 (+ ?x3477 ?x3447 ?x3449 ?x372 (* (/ 2.0 3.0) S_1)))))
 (let (($x203094 (or $x988 $x3173 (<= (+ ?x3477 ?x3474 ?x3475 (* (/ 5.0 3.0) S_1) ?x952) 0.0) $x148211)))
 (let (($x199924 (or $x908 $x988 (<= (+ Q_4 ?x364 A_3 ?x376 ?x904 ?x1155 L_0 L_1) 0.0))))
 (let (($x191611 (or $x988 (<= (+ (* 2.0 L_1) ?x1166 ?x1167 (* 3.0 S_3) ?x405) 0.0))))
 (let (($x192490 (or $x988 (<= (+ Q_4 ?x364 ?x372 (* 2.0 L_1) (* 2.0 S_3)) 0.0))))
 (let (($x147814 (or $x893 (<= (+ (* (- (/ 1.0 2.0)) S_3) ?x1426) (- 5.0)) (<= (+ ?x1162 ?x1163 ?x1635) (- 10.0)))))
 (let ((?x488 (+ L_0 ?x468)))
 (let (($x336 (<= 0.0 ?x488)))
 (let (($x187333 (or $x336 $x988 (<= (+ ?x1166 ?x1167 ?x1168 ?x1169 ?x1182 ?x952 (* 2.0 L_1)) 0.0))))
 (let (($x147582 (or (= Q_4 0.0) (not $x988))))
 (let (($x96 (>= S_1 S_0)))
 (let (($x99 (>= S_2 S_1)))
 (let (($x102 (>= S_3 S_2)))
 (let (($x105 (>= S_4 S_3)))
 (let (($x107 (>= A_1 A_0)))
 (let (($x108 (>= A_2 A_1)))
 (let (($x109 (>= A_3 A_2)))
 (let (($x110 (>= A_4 A_3)))
 (and $x110 $x109 $x108 $x107 $x105 $x102 $x99 $x96 (or (<= (+ ?x376 S_1 L_1) (- 5.0)) $x908) (or $x336 (<= (+ Q_4 ?x376 S_1 L_1) 0.0)) (or (<= (+ Q_4 ?x364 A_3 ?x376 S_1 L_1) (- 5.0)) $x336) $x147582 $x187333 (or $x336 (<= (+ Q_4 ?x376 S_0 L_1) (- 5.0))) (or (not $x336) $x908) $x147814 (or $x893 (<= (+ ?x1635 ?x1155) (- 10.0))) (or $x893 $x1811 $x3709) (or $x893 (<= (+ ?x904 ?x394 ?x1155 L_0) 0.0)) (or $x893 (<= (+ ?x1635 ?x1182 ?x952) 0.0)) (or $x899 $x1308 $x5075) (or $x899 (<= (+ ?x405 S_0) (- 5.0))) (or $x1811 $x5075) (or $x908 (<= (+ ?x1166 ?x1169 S_2 S_0 (* 2.0 L_1)) 0.0)) $x192490 (or $x988 $x1956 $x3722 $x4112) (<= (+ Q_4 ?x364 L_1 S_4) 0.0) $x191611 (or $x893 $x3709 $x147957) (or $x988 (<= (+ ?x2981 ?x2494 ?x10906 (* 5.0 S_3) ?x952) 0.0)) (or $x908 (<= (+ ?x376 L_1 S_0) (- 10.0))) (or $x893 $x1811 $x148742) (or $x893 $x1308 $x3709) $x199924 (or $x899 (<= (+ (* (/ 1.0 3.0) S_3) ?x405 ?x3407) 0.0)) (or $x988 $x4540 (<= (+ ?x2324 ?x2381 ?x4628 (* (/ 5.0 2.0) S_2) ?x952) 0.0)) $x203094 (or $x988 $x2828 $x19102) $x196774 $x186564 (or $x893 $x3709 (<= (+ ?x360 ?x368 A_2 S_4 ?x1635 S_1) 0.0)) (or $x893 (<= (+ ?x1636 (* (- 6.0) S_3) (* 4.0 S_1)) 0.0)) $x178397 $x183499 $x188010 $x405548 (or $x908 (<= (+ ?x376 L_1 (* (/ 1.0 2.0) S_2) ?x1426) (- 5.0))) (or $x908 (<= (+ ?x364 A_2 ?x376 S_4 ?x405 S_0 L_1) 0.0)) $x149785 (or $x908 $x1308 (<= (+ ?x360 A_4 ?x368 ?x376 L_1 S_0) (- 5.0))) (or $x988 $x1176 (<= (+ ?x2277 ?x1267 ?x1430 S_2) 0.0)) (or $x988 $x2828 (<= (+ L_1 Q_4 ?x364 ?x904 ?x1210 L_0) 0.0)) (or $x893 $x3709 $x6827) (or $x893 $x3709 $x6802) (or $x893 $x1174 $x1308 $x148742) (or $x908 $x988 $x1176) $x195114 (or $x908 (<= (+ ?x2494 ?x2849 S_4 (* 3.0 S_0) ?x2981) 0.0)) (or $x908 (<= (+ ?x376 L_1 (* (/ 1.0 3.0) S_3) ?x3407) (- 5.0))) (or $x988 (<= (+ ?x1166 ?x1167 ?x376 ?x1156 (* 3.0 S_3)) 0.0)) (or $x887 (<= (+ ?x383 S_2) (- 5.0))) (or $x887 (<= (+ ?x2277 ?x1267 ?x1430 S_2) 0.0) $x149749) (or $x887 $x19837 (<= (+ ?x1168 ?x773 ?x1162 ?x1742 S_2 ?x416 ?x1163) 0.0)) (or $x899 (<= (+ ?x368 L_1 S_4 ?x405 S_0) 0.0)) $x178532 (or $x893 $x6839 $x148742) (or $x988 $x1900 $x1964 $x2423 $x4418 $x151766) (or $x988 $x3799 (<= (+ L_1 Q_4 ?x364 ?x1210 ?x416) 0.0)) (or $x908 (<= (+ ?x1028 ?x1125 S_3 ?x530 ?x1156) 0.0)) (or $x899 (<= (+ ?x372 L_1 S_4 ?x1729 ?x530) 0.0)) (or $x887 $x908 $x149749 (<= (+ ?x376 L_1 ?x383 ?x1210) (- 5.0))) $x191285 (or $x887 $x908 $x2424 (not (<= 0.0 (+ Q_4 ?x372 S_2 L_1)))) (or (<= (+ Q_4 ?x364 A_2 ?x376 S_3 L_1) 0.0) $x908 $x988) (or $x988 (<= (+ ?x1156 ?x1028 ?x1153 (* 4.0 S_3) ?x416) 0.0)) (or $x988 $x3173 $x4103 $x9518) $x414766 (or $x988 $x146902 (<= (+ ?x1267 ?x2427 ?x4607 (* (/ 1.0 2.0) S_2)) (- 5.0))) (or $x887 $x893 $x145690 $x147708) (or $x893 $x6829 $x148742) (or $x893 $x1174 $x1308 $x1645 $x3882) (or $x893 $x3709 (<= (+ ?x360 ?x368 A_1 S_4 ?x394) 0.0)) $x189385 (or $x893 $x6802 $x148742) $x409907 (or $x899 (<= (+ ?x372 L_1 S_3 ?x405 S_0) 0.0)) (or $x893 $x988 $x146902 $x149197 $x150751) (or $x908 $x988 (<= (+ ?x1156 ?x1028 ?x1167 ?x376 (* 3.0 S_3)) 0.0)) (or $x908 $x988 $x39442) (or $x908 $x39445) $x400454 (or $x893 $x1174 $x7938 $x148742) (or $x893 (<= (+ ?x360 ?x368 A_1 S_4 ?x394) 0.0) $x148742) (or $x893 (<= (+ ?x368 L_1 S_4 ?x394 S_1) 0.0)) (or $x887 $x145690 $x147616 $x147708) $x200643 $x416327 (or $x908 (<= (+ ?x372 ?x376 (* 2.0 L_1) S_3 S_0) (- 5.0))) (or $x908 (<= (+ ?x364 A_2 ?x376 S_4 ?x394 S_1 L_1) 0.0)) (or $x887 (<= (+ ?x2277 ?x1267 ?x1430 S_2) 0.0) $x12555) (or $x988 $x146902 $x149197 $x150751 $x151139) (or $x899 (<= (+ (* (/ 1.0 4.0) S_4) ?x405 ?x1436) 0.0)) (or $x908 $x988 $x1567 (<= ?x3412 0.0)) (or $x908 (<= (+ ?x2427 ?x4607 (* (/ 1.0 2.0) A_3) ?x2277 ?x1426 ?x1267) (- 5.0))) $x199106 $x190439 (or $x988 (<= (+ L_1 Q_4 ?x364 S_3) (- 5.0))) (or $x988 $x1308 $x4418 $x147616 $x148200 $x148387) (or $x887 $x893 $x1644 $x4418 $x146939 $x147957) (or $x908 $x988 (<= (+ ?x1028 ?x1153 ?x1116 ?x1125 S_4 ?x1155 ?x1156) 0.0)) (or $x908 (<= (+ ?x368 A_2 ?x376 S_3 ?x405 S_0 L_1) 0.0)) (or $x908 $x988 (<= (+ ?x1156 ?x1166 ?x1167 ?x376 (* 3.0 S_3)) (- 5.0))) $x413202 $x185257 (or $x887 $x893 (<= (+ ?x383 S_1) (- 10.0))) (or $x887 $x1308 $x138743 $x146722 $x147721) (or $x893 $x6827 $x148742) (or $x988 $x146902 $x147743 $x151139) $x187732 $x187607 (or $x1811 $x20750 $x34456) (or $x899 $x1308 $x34456 $x153187) (or $x908 $x1308 (not $x147498) $x148030 $x150641) (or $x893 $x3709 $x6839) (or $x1950 $x4616 $x8748 $x9233 $x9280 (<= ?x18491 0.0)) (or $x893 $x147957 $x148742) (or $x887 $x1308 $x1644 $x4418 $x146939 $x148226 $x148248) (or $x887 $x893 $x1644 $x4418 $x6802 $x146939) (or $x887 $x893 $x1644 $x4418 $x6827 $x146939) (or $x893 $x1174 $x1308 $x1644 $x4616 $x138794) (or $x893 $x1174 $x1644 $x4616 $x6827 $x138794) $x410390 (or $x887 $x1644 $x1811 $x4418 $x146939 $x148226 $x148248) $x403188 (or $x887 $x1956 $x4112 (<= (+ A_3 ?x372 ?x904 ?x383 ?x1155 L_0) (- 5.0))) (or $x887 $x149749 $x19102) (or $x893 $x1174 $x1308 $x1644 $x4418 $x138794) (or $x908 $x988 $x1875) (or $x908 (<= (+ ?x364 A_3 ?x376 S_4 ?x394 S_0 L_1) 0.0)) (or $x893 $x1174 $x1645 $x3882 $x6802) (or $x893 $x1174 $x1645 $x3882 $x147957) (or $x893 $x1174 $x1645 $x3882 $x6839) (or $x887 $x1644 $x4418 $x145849 $x147894) (or $x887 $x19665 $x145849 $x147894 $x148209) (or $x1308 $x4616 (<= ?x18491 0.0) $x148387) (or $x887 $x1900 $x1950 $x9233 $x9280 $x12084 $x19665 $x148248) (or $x893 $x1174 $x1645 $x1811 $x3882) (or $x1308 $x1644 $x4418 $x138794 $x148175 $x148226 $x148248) (or $x887 $x893 $x1174 $x1644 $x19665 $x147957) (or $x4616 (<= ?x18491 0.0) $x145849 $x148387) (or $x893 $x3709 $x7938) (or $x887 (<= (+ ?x383 S_1) (- 10.0)) $x147616) (or $x899 $x5075 $x38189) $x188502 (or $x887 $x1644 $x1950 $x4418 $x9233 $x9280 $x12084 $x146939 $x148248) (or $x908 $x988 $x1172) (or $x908 $x22260) (or $x908 $x988 $x24919 $x25283) $x195083 (or $x988 $x4540 $x8174) (or $x893 $x1174 $x1811 $x3427 $x18160) (or $x893 $x3427 $x18160 $x146939 $x147957) (or $x908 $x988 $x10333) $x197246 (or $x908 $x988 (<= (+ ?x2324 ?x2427 ?x4607 ?x376 ?x4633) (- 5.0)) $x151072) (or $x887 $x1644 $x1964 $x2423 $x4418 $x12817 $x146939) (or $x1900 $x2423 $x9229 $x9313 $x19665 $x138794) (or $x1900 $x2423 $x9218 $x9313 $x19665 $x138794) (or $x1928 $x2423 $x8773 $x19665 $x148490) (or $x887 $x1644 $x6802 $x19665 $x146820 $x146939) (or $x887 $x1644 $x4418 $x145849 $x146939 $x147616) (or $x1900 $x2423 $x4418 $x9218 $x9313 $x138794 $x148248) (or $x1644 $x1928 $x2423 $x4418 $x138794 $x146939) (or $x908 $x988 (<= (+ Q_4 ?x364 A_2 ?x376 S_1 L_1) (- 10.0))) $x200631 (or $x893 $x1174 $x1308 $x3427 $x18160) (or $x887 $x1308 $x1644 $x4616 $x146939 $x148226) (or $x1644 $x2423 $x4418 $x8773 $x138794 $x146820) (or $x1644 $x2423 $x8773 $x19665 $x138794 $x146820) (or $x1644 $x2423 $x4616 $x8773 $x138794 $x146820) (or $x1308 $x1644 $x4616 $x138794 $x148387) (or $x893 $x1174 $x1308 $x1644 $x19665 $x138794) (or $x887 $x893 $x1174 $x1644 $x4616 $x147957) (or $x1644 $x2428 $x4616 $x8775 $x51251 $x138794) (or $x2423 $x4616 $x9218 $x9313 (<= ?x18491 0.0) $x148175) (or $x893 $x1174 $x3427 $x6839 $x18160) (or $x1811 $x1900 $x4418 $x7391 $x138794 $x148248) (or $x893 $x1174 $x1645 $x3882 $x6827) (or $x893 $x1174 $x3427 $x6827 $x18160) (or $x1644 $x1928 $x2423 $x4418 $x8773 $x151766) (or $x988 $x1644 $x1950 $x4418 $x8748 $x46823 $x138794) $x401546 (or $x1644 $x1928 $x4616 $x6829 $x146939) $x398080 (or $x887 $x1811 $x1900 $x7391 $x19665 $x148248) (or $x887 $x893 $x4418 $x145849 $x148209 $x148387) (or $x988 $x1644 $x3173 $x4616 $x145849 $x148387) (or $x887 $x1644 $x4616 $x145849 $x147894) (or $x1308 $x1644 $x4616 $x138794 $x148175 $x148226) (or $x887 $x1644 $x19665 $x145849 $x147894) (or $x887 $x1644 $x1950 $x4418 $x8748 $x12084 $x46823) (or $x887 $x1900 $x2428 $x9229 $x9937 $x19665 $x148248 $x153325) (or $x893 $x1174 $x3427 $x18160 $x147957) (or $x893 $x988 $x1174 $x1644 $x3173 $x4418 $x147957) (or $x988 $x3799 $x19837) (or $x908 $x34443) $x179500 (or $x893 $x1174 $x1644 $x1811 $x19665 $x138794) (or $x893 $x1174 $x1644 $x1811 $x4418 $x138794) (or $x887 $x893 $x1900 $x4616 $x6829) (or $x1644 $x1928 $x6829 $x19665 $x146939) (or $x887 $x1644 $x2423 $x4616 $x12817 $x146820 $x146939) (or $x908 $x1308 $x147498 $x150641 $x153080) (or $x887 $x893 $x1900 $x6829 $x19665) (or $x1644 $x1928 $x6827 $x19665 $x146939) (or $x887 $x893 $x1900 $x6827 $x19665) (or $x887 $x893 $x1900 $x4616 $x6827) (or $x1928 $x2423 $x4616 $x8773 (<= ?x18491 0.0)) (or $x887 $x1308 $x1644 $x4418 $x148387 $x148491) (or $x893 $x1174 $x1644 $x4418 $x6802 $x138794) (or $x893 $x1174 $x1644 $x4616 $x6802 $x138794) (or $x887 $x1900 $x2428 $x9229 $x9937 $x12853 $x19665 $x148248) $x184126 (or $x1644 $x1811 $x1928 $x19665 $x146939) (or $x887 $x1900 $x2423 $x4616 $x12555 $x51139) (or $x908 $x988 $x3799 $x24943) (or $x908 $x988 $x151019) $x179117 (or $x887 $x893 $x1644 $x4616 $x6802 $x146939) (or $x908 $x988 (<= (+ ?x3474 ?x3475 ?x3484 ?x3476 ?x3407 ?x3477) (- 10.0))) (or $x1644 $x1811 $x1928 $x4418 $x8764) (or $x988 $x4418 $x145849 $x147616 $x148200 $x148387) (or $x887 $x1900 $x1950 $x4418 $x9233 $x9280 $x12084 $x148248) (or $x887 $x893 $x1174 $x1644 $x6829 $x19665) (or $x887 $x893 $x1174 $x1644 $x4616 $x6829) (or $x1644 $x1928 $x2428 $x4616 $x12853 $x148175) (or $x1644 $x1811 $x1928 $x8764 $x19665) (or $x908 $x22249) (or $x887 $x908 $x2424 $x12555) (or $x1308 $x8775 $x19665 $x51251 $x148490) (or $x887 $x2423 $x9313 $x19665 $x38313 $x146939 $x148226) (or $x887 $x2423 $x4616 $x9313 $x38313 $x146722) (or $x887 $x1644 $x1950 $x4616 $x8748 $x9280 $x12084 $x148491) (or $x887 $x2423 $x4418 $x9313 $x38313 $x146939 $x148226 $x148248) (or $x887 $x2423 $x4616 $x9313 $x38313 $x146939 $x148226) (or $x887 $x1900 $x2428 $x4616 $x9229 $x9937 $x153325) (or $x887 $x893 $x1174 $x1644 $x4418 $x6827) $x150149 (or $x887 $x893 $x1308 $x1644 $x19665 $x148387) (or $x887 $x893 $x1644 $x4616 $x6827 $x146939) (or $x887 $x1644 $x2428 $x12853 $x19665 $x51251 $x146939) (or $x1644 $x2428 $x8775 $x19665 $x51251 $x138794) (or $x887 $x893 $x1174 $x1644 $x6827 $x19665) (or $x887 $x19665 $x145849 $x146939 $x147616 $x148209) (or $x887 $x4616 $x145849 $x146939 $x148209) (or $x887 $x1308 $x1644 $x19665 $x148175 $x148226 $x148248) $x413324 (or $x887 $x1644 $x4418 $x145849 $x148387 $x148491) $x406191 (or $x887 $x19837 $x149749) (or $x887 $x8174 $x149749) (or $x893 $x1174 $x3427 $x6802 $x18160) (or $x908 $x988 (<= (+ ?x2324 ?x2381 ?x4607 ?x376 ?x4633) 0.0) $x25283) $x411275 (or $x887 $x1644 $x19665 $x46823 $x145849 $x148387) (or $x887 $x1964 $x4103 (<= (+ ?x1166 ?x1168 ?x773 ?x1742 ?x1182 ?x952) 0.0)) (or $x887 $x1900 $x2428 $x4616 $x9229 $x9937 $x12853) (or $x908 $x28406) $x411313 (or $x887 $x1644 $x2423 $x12817 $x19665 $x51251 $x146939) (or $x893 $x1174 $x3427 $x6829 $x18160) $x180073 (or $x12555 $x19665 $x145849 $x147616 $x148387 $x148490) (or $x887 $x893 $x1644 $x19665 $x145849 $x148387) (or $x899 $x5075 (<= (+ ?x3447 ?x19286 ?x3457 ?x5729 ?x405 ?x3407) 0.0)) (or $x1644 $x1928 $x1950 $x12084 $x19665 $x146939) (or $x887 $x8174 $x12555) (or $x887 $x1644 $x2423 $x4418 $x146820 $x146939 $x147312) (or $x887 $x893 $x1174 $x1644 $x6802 $x19665) (or $x1644 $x1950 $x8748 $x19665 $x46823 $x138794) (or $x887 $x1644 $x2423 $x19665 $x146820 $x146939 $x147312) (or $x887 $x1644 $x2423 $x12817 $x19665 $x146820 $x160451) (or $x887 $x1644 $x2423 $x4418 $x12817 $x146820 $x160451) (or $x887 $x12555 $x19102) (or $x887 $x12555 $x19837) $x177700 (or $x899 $x1308 $x19690 $x153187 (<= (+ ?x360 A_4 ?x372 ?x1729 ?x530) (- 5.0))) (or $x887 $x4103 $x51139 (<= (+ ?x1168 ?x773 ?x1742 ?x1182 ?x952) (- 10.0))) $x34 (<= (+ ?x904 S_0 L_0) 0.0) (<= (+ ?x376 L_1 S_1) 0.0) (<= (+ ?x372 L_1 S_2) 0.0) (<= (+ ?x368 L_1 S_3) 0.0)))))))))))))))))))))))))))))))))))))))))))))))))))))))))))))))))))))))))))))))))))))))))))))))))))))))))))))))))))))))))))))))))))))))))))))))))))))))))))))))))))))))))))))))))))))))))))))))))))))))))))))))))))))))))))))))))))))))))))))))))))))))))))))))))))))))))))))))))))))))))))))))))))))))))))))
(check-sat)
